36 195 135 144 116 91 177 54 112 86 25 162 130 147 94 150 55 20 181 9 8 101 141 19 24 113 163 132 46 27 11 114 105 103 182 81 17 84 188 85 95 142 63 149 58 5 39 82 2 115 176 154 3 42 76 90 53 153 62 15 151 157 183 106 68 133 156 79 193 173 64 159 186 13 67 32 165 44 98 77 30 56 71 134 160 75 126 108 124 145 45 120 189 100 194 197 73 111 60 170 6 131 66 74 158 35 128 107 198 175 196 190 28 127 57 102 110 192 21 184 172 41 22 109 167 10 88 152 69 48 169 97 138 139 89 16 166 96 104 31 93 161 155 199 125 168 49 0 174 129 80 33 148 185 37 65 7 51 137 119 179 26 23 164 87 178 12 180 78 146 40 83 136 171 14 72 38 187 70 121 122 92 43 59 52 123 4 117 61 34 99 29 143 1 47 140 18 191 50 118